10J3M/DAT/10J3MNNX-9.dat
10 3
14.7807 3.8446
23.2731 4.8242
23.3319 4.8303
23.2432 4.8211
25.0484 5.0048
23.4065 4.838
18.8143 4.3375
34.3007 5.8567
26.8153 5.1783
25.6492 5.0645
48.6