10J3M/SOL/10J3MNNX-9.sol
solution status: optimal solution found
objective value:                              81.6526
x#1#1                                               1 	(obj:0)
x#2#2                                               1 	(obj:0)
x#3#1                                               1 	(obj:0)
x#4#2                                               1 	(obj:0)
x#5#2                               0.107332593414725 	(obj:0)
x#5#3                               0.892667406585275 	(obj:0)
x#6#3                                               1 	(obj:0)
x#7#3                                               1 	(obj:0)
x#8#1                               0.757142917909082 	(obj:0)
x#8#2                               0.242857082090918 	(obj:0)
x#9#2                                               1 	(obj:0)
x#10#1                                              1 	(obj:0)
z                                             81.6526 	(obj:1)
